decision_x1=[0,7];
decision_x2=[0,7];
decision_x3=[0,7];
decision_x4=[0,7];
decision_x5=[0,7];
decision_x6=[0,7];
decision_x7=[0,7];
decision_x8=[0,7];
decision_x9=[0,7];
decision_x10=[0,7];
decision_x11=[0,7];
decision_x12=[0,7];
decision_x13=[0,7];
decision_x14=[0,7];
decision_x15=[0,7];
decision_x16=[0,7];
decision_x17=[0,7];
decision_x18=[0,7];
decision_x19=[0,7];
decision_x20=[0,7];
random_y1=[0,7];
random_y2=[0,7];
random_y3=[0,7];
random_y4=[0,7];
random_y5=[0,7];
random_y6=[0,7];
random_y7=[0,7];
random_y8=[0,7];
random_y9=[0,7];
constraint_x2_x1=[
0,0,8.5|
0,1,6.4|
0,2,3.9|
0,3,2.1|
0,4,8.5|
0,5,9.4|
0,6,9.6|
0,7,1.6|
1,0,3.2|
1,1,8.2|
1,2,1.2|
1,3,9.4|
1,4,5.6|
1,5,9.1|
1,6,5.1|
1,7,2.8|
2,0,9.6|
2,1,7.2|
2,2,0.19|
2,3,3.2|
2,4,6.8|
2,5,8.6|
2,6,1.2|
2,7,4.6|
3,0,8.9|
3,1,7.5|
3,2,5.9|
3,3,6|
3,4,2|
3,5,8.5|
3,6,3|
3,7,2.1|
4,0,1.4|
4,1,9.2|
4,2,5.1|
4,3,5|
4,4,5.8|
4,5,1.2|
4,6,6.8|
4,7,5|
5,0,6.7|
5,1,9.8|
5,2,2.2|
5,3,2.4|
5,4,1.5|
5,5,0.47|
5,6,6.9|
5,7,1.6|
6,0,1.8|
6,1,9.4|
6,2,8.9|
6,3,9.1|
6,4,1.2|
6,5,7.6|
6,6,1.6|
6,7,6.8|
7,0,9.7|
7,1,4.8|
7,2,7.9|
7,3,5.6|
7,4,9.6|
7,5,1.9|
7,6,2.7|
7,7,9.8|
];
constraint_x3_x2=[
0,0,2.6|
0,1,9.2|
0,2,3|
0,3,0.47|
0,4,7.3|
0,5,8.6|
0,6,3.9|
0,7,7.1|
1,0,3.8|
1,1,7.8|
1,2,3.5|
1,3,5.8|
1,4,3|
1,5,0.68|
1,6,6.3|
1,7,0.85|
2,0,7.2|
2,1,3.8|
2,2,2|
2,3,1.5|
2,4,6.7|
2,5,8.7|
2,6,2.6|
2,7,8.6|
3,0,8.1|
3,1,8.8|
3,2,8.6|
3,3,7.7|
3,4,5.9|
3,5,4.9|
3,6,9.6|
3,7,0.17|
4,0,5|
4,1,4.9|
4,2,1.1|
4,3,6.7|
4,4,2.2|
4,5,3.5|
4,6,4.2|
4,7,2.8|
5,0,1.2|
5,1,8.8|
5,2,4.7|
5,3,4|
5,4,6|
5,5,6.1|
5,6,5.9|
5,7,7.7|
6,0,2.3|
6,1,4.1|
6,2,0.61|
6,3,0.052|
6,4,9.9|
6,5,7.2|
6,6,0.96|
6,7,1.6|
7,0,6.5|
7,1,1.6|
7,2,4.5|
7,3,5.5|
7,4,2.7|
7,5,5.9|
7,6,4.7|
7,7,9.8|
];
constraint_x4_x3=[
0,0,7.4|
0,1,4.5|
0,2,7.2|
0,3,0.4|
0,4,1.2|
0,5,8.7|
0,6,8.3|
0,7,8|
1,0,4.9|
1,1,4.1|
1,2,7.2|
1,3,4.8|
1,4,9.9|
1,5,1.7|
1,6,7.9|
1,7,4.8|
2,0,7.1|
2,1,5.9|
2,2,6.1|
2,3,6|
2,4,6.6|
2,5,4.9|
2,6,5.8|
2,7,7.8|
3,0,8.3|
3,1,9.2|
3,2,0.28|
3,3,3.8|
3,4,0.99|
3,5,3|
3,6,2.8|
3,7,2.8|
4,0,4.6|
4,1,4.6|
4,2,10|
4,3,8.1|
4,4,7.4|
4,5,2.2|
4,6,3|
4,7,5.2|
5,0,1.8|
5,1,8.8|
5,2,7.4|
5,3,5.9|
5,4,5.8|
5,5,5.8|
5,6,8|
5,7,1.7|
6,0,3.5|
6,1,8.1|
6,2,0.65|
6,3,1.9|
6,4,3.3|
6,5,4.2|
6,6,2.5|
6,7,6.1|
7,0,5.3|
7,1,8.2|
7,2,9.1|
7,3,1|
7,4,7.8|
7,5,1.4|
7,6,4.9|
7,7,4.1|
];
constraint_x5_x1=[
0,0,3.8|
0,1,2.3|
0,2,0.42|
0,3,9.8|
0,4,8.3|
0,5,0.46|
0,6,1.9|
0,7,7|
1,0,5.1|
1,1,8.5|
1,2,7.8|
1,3,4.9|
1,4,9.9|
1,5,4.2|
1,6,4.6|
1,7,8.8|
2,0,1.8|
2,1,6.2|
2,2,7.2|
2,3,2.8|
2,4,8.9|
2,5,4.2|
2,6,4.8|
2,7,4.4|
3,0,8.8|
3,1,0.22|
3,2,6.5|
3,3,2.5|
3,4,6.1|
3,5,7.7|
3,6,4.7|
3,7,8|
4,0,2|
4,1,2|
4,2,2.7|
4,3,4.4|
4,4,8.8|
4,5,5.5|
4,6,4.6|
4,7,5.9|
5,0,0.3|
5,1,0.11|
5,2,9.5|
5,3,6.8|
5,4,4.3|
5,5,5.1|
5,6,6.3|
5,7,1.6|
6,0,3.7|
6,1,9.7|
6,2,8.1|
6,3,2.5|
6,4,9.4|
6,5,1.5|
6,6,6.9|
6,7,0.74|
7,0,3.6|
7,1,6|
7,2,0.3|
7,3,8.9|
7,4,7.5|
7,5,8.3|
7,6,0.083|
7,7,4.5|
];
constraint_x6_x2=[
0,0,9.7|
0,1,8.5|
0,2,2.1|
0,3,2.2|
0,4,9.7|
0,5,9.4|
0,6,0.87|
0,7,1.5|
1,0,7.1|
1,1,7.5|
1,2,1.9|
1,3,6.9|
1,4,9.4|
1,5,4.2|
1,6,3|
1,7,4.8|
2,0,3.5|
2,1,2.8|
2,2,5.9|
2,3,9.5|
2,4,2.9|
2,5,2.2|
2,6,2.2|
2,7,7|
3,0,3|
3,1,6.2|
3,2,6.5|
3,3,6|
3,4,5|
3,5,0.19|
3,6,9.6|
3,7,5.2|
4,0,2.4|
4,1,2.2|
4,2,3.4|
4,3,6.5|
4,4,9.6|
4,5,6.1|
4,6,0.67|
4,7,5.1|
5,0,2.4|
5,1,9.3|
5,2,9.4|
5,3,8.5|
5,4,8.7|
5,5,1|
5,6,5.3|
5,7,9|
6,0,2|
6,1,2.5|
6,2,7.6|
6,3,8.7|
6,4,3.5|
6,5,6.5|
6,6,6.3|
6,7,2.1|
7,0,9.9|
7,1,8.7|
7,2,5.7|
7,3,7|
7,4,2|
7,5,2.8|
7,6,5.5|
7,7,0.66|
];
constraint_x6_x5=[
0,0,0.88|
0,1,3.2|
0,2,4.4|
0,3,6.3|
0,4,7.2|
0,5,2.3|
0,6,0.58|
0,7,2.2|
1,0,0.43|
1,1,5.3|
1,2,4|
1,3,8.5|
1,4,8.6|
1,5,8.1|
1,6,4.1|
1,7,1.7|
2,0,5.3|
2,1,8.7|
2,2,8.9|
2,3,3.5|
2,4,5.1|
2,5,4.7|
2,6,3.1|
2,7,6.3|
3,0,8.1|
3,1,0.88|
3,2,7.2|
3,3,0.98|
3,4,6.1|
3,5,4.1|
3,6,9.2|
3,7,5.2|
4,0,4|
4,1,0.25|
4,2,5.1|
4,3,0.69|
4,4,5|
4,5,8|
4,6,5.4|
4,7,1.1|
5,0,2.4|
5,1,4.4|
5,2,9|
5,3,4.2|
5,4,6.2|
5,5,3.4|
5,6,4.1|
5,7,9.9|
6,0,0.3|
6,1,2.4|
6,2,7|
6,3,9.7|
6,4,8.7|
6,5,8.2|
6,6,2.9|
6,7,3.6|
7,0,3.7|
7,1,5.1|
7,2,8.5|
7,3,2|
7,4,0.52|
7,5,4.9|
7,6,5.7|
7,7,5.4|
];
constraint_x7_x3=[
0,0,8.5|
0,1,9.2|
0,2,7.4|
0,3,2.1|
0,4,1.3|
0,5,4.9|
0,6,2.5|
0,7,1.8|
1,0,1.3|
1,1,1|
1,2,4.1|
1,3,9.2|
1,4,6.1|
1,5,7.2|
1,6,9.6|
1,7,1.6|
2,0,4.4|
2,1,5|
2,2,7.8|
2,3,5.5|
2,4,9.8|
2,5,0.12|
2,6,5.6|
2,7,9.4|
3,0,8.4|
3,1,3.4|
3,2,9|
3,3,6.8|
3,4,0.086|
3,5,7.6|
3,6,2.8|
3,7,3.9|
4,0,8.9|
4,1,6.6|
4,2,8.2|
4,3,2.5|
4,4,8.8|
4,5,1.6|
4,6,6.8|
4,7,2.8|
5,0,0.91|
5,1,0.25|
5,2,6.1|
5,3,7.2|
5,4,3.4|
5,5,1.8|
5,6,9|
5,7,4.5|
6,0,4.7|
6,1,4.8|
6,2,7.8|
6,3,7.5|
6,4,7.3|
6,5,3.1|
6,6,8.7|
6,7,7.2|
7,0,0.0088|
7,1,3.7|
7,2,0.48|
7,3,2.7|
7,4,0.48|
7,5,4.8|
7,6,9.3|
7,7,9.3|
];
constraint_x7_x6=[
0,0,5.3|
0,1,9.1|
0,2,4.3|
0,3,7.3|
0,4,6.2|
0,5,0.8|
0,6,3.2|
0,7,2.9|
1,0,3.3|
1,1,1.5|
1,2,6.4|
1,3,6|
1,4,2.2|
1,5,6.7|
1,6,5.8|
1,7,3|
2,0,3.5|
2,1,9.4|
2,2,7.3|
2,3,2.1|
2,4,3.7|
2,5,5.1|
2,6,0.48|
2,7,8.1|
3,0,7.8|
3,1,5.5|
3,2,5.9|
3,3,8|
3,4,0.19|
3,5,1|
3,6,3.5|
3,7,9.2|
4,0,1.1|
4,1,3.2|
4,2,4.4|
4,3,1.4|
4,4,4|
4,5,5.4|
4,6,3.3|
4,7,6.9|
5,0,5.4|
5,1,9.8|
5,2,4.1|
5,3,2|
5,4,2|
5,5,5.5|
5,6,6.2|
5,7,7|
6,0,4.5|
6,1,0.84|
6,2,0.75|
6,3,0.56|
6,4,4|
6,5,5.5|
6,6,9.4|
6,7,4.1|
7,0,4.2|
7,1,3.4|
7,2,3.7|
7,3,9.2|
7,4,9.8|
7,5,8.9|
7,6,4.1|
7,7,5.9|
];
constraint_x8_x4=[
0,0,0.82|
0,1,10|
0,2,4|
0,3,7.5|
0,4,2.7|
0,5,5|
0,6,9.2|
0,7,6.6|
1,0,7.1|
1,1,7.6|
1,2,8.2|
1,3,0.74|
1,4,4.2|
1,5,8.7|
1,6,4.9|
1,7,10|
2,0,0.36|
2,1,6.3|
2,2,4|
2,3,5.1|
2,4,6.5|
2,5,9.6|
2,6,6|
2,7,4.1|
3,0,6.6|
3,1,8.4|
3,2,1.4|
3,3,2.1|
3,4,1.7|
3,5,7.2|
3,6,4.2|
3,7,6.4|
4,0,9.2|
4,1,4.7|
4,2,2.5|
4,3,3.2|
4,4,7|
4,5,3.5|
4,6,7.1|
4,7,9.3|
5,0,1.4|
5,1,4.2|
5,2,7.1|
5,3,6.3|
5,4,2.3|
5,5,6.7|
5,6,9.5|
5,7,8.1|
6,0,5.3|
6,1,5.7|
6,2,2.3|
6,3,2.7|
6,4,3.1|
6,5,6.4|
6,6,0.23|
6,7,8.7|
7,0,0.4|
7,1,1.8|
7,2,7.4|
7,3,7.4|
7,4,8.8|
7,5,6.7|
7,6,9.7|
7,7,0.78|
];
constraint_x8_x7=[
0,0,6.9|
0,1,8.6|
0,2,8.3|
0,3,0.28|
0,4,8.3|
0,5,0.38|
0,6,8.6|
0,7,5.5|
1,0,5.3|
1,1,5.7|
1,2,3.2|
1,3,3.3|
1,4,1.2|
1,5,3.2|
1,6,6.9|
1,7,7.5|
2,0,7.7|
2,1,5.8|
2,2,0.67|
2,3,4.5|
2,4,5.4|
2,5,5.2|
2,6,8.5|
2,7,4.4|
3,0,5.3|
3,1,9.9|
3,2,1.7|
3,3,7.9|
3,4,6.6|
3,5,0.099|
3,6,3.8|
3,7,7.3|
4,0,4|
4,1,3.7|
4,2,2|
4,3,7.6|
4,4,9|
4,5,2.6|
4,6,8.6|
4,7,8.6|
5,0,0.58|
5,1,9.9|
5,2,4.7|
5,3,7.1|
5,4,4.4|
5,5,2.7|
5,6,6.1|
5,7,0.37|
6,0,6.4|
6,1,4.2|
6,2,4.1|
6,3,10|
6,4,7.2|
6,5,5.5|
6,6,8.8|
6,7,7.9|
7,0,6.3|
7,1,6.7|
7,2,6.5|
7,3,7.4|
7,4,3.1|
7,5,3.2|
7,6,0.9|
7,7,6.1|
];
constraint_x9_x5=[
0,0,0.43|
0,1,4.8|
0,2,2.1|
0,3,5.5|
0,4,2.7|
0,5,7.8|
0,6,7.6|
0,7,4.7|
1,0,10|
1,1,5.3|
1,2,2.9|
1,3,0.94|
1,4,5.2|
1,5,1.6|
1,6,8.4|
1,7,0.17|
2,0,5.9|
2,1,9|
2,2,3.2|
2,3,4.9|
2,4,5.7|
2,5,8.9|
2,6,4.7|
2,7,7.6|
3,0,6.8|
3,1,3.9|
3,2,5.9|
3,3,1.4|
3,4,3.3|
3,5,1.4|
3,6,8.3|
3,7,0.45|
4,0,2|
4,1,0.82|
4,2,1.7|
4,3,4|
4,4,2|
4,5,1.6|
4,6,0.52|
4,7,7.5|
5,0,3|
5,1,0.73|
5,2,3.1|
5,3,4.7|
5,4,3.2|
5,5,5.5|
5,6,4.9|
5,7,8.4|
6,0,6.8|
6,1,4.4|
6,2,2|
6,3,9.6|
6,4,4.3|
6,5,3.2|
6,6,7.3|
6,7,5.4|
7,0,7.9|
7,1,7.9|
7,2,1.1|
7,3,1.4|
7,4,3.7|
7,5,3.2|
7,6,0.9|
7,7,6.5|
];
constraint_x10_x6=[
0,0,5.4|
0,1,3|
0,2,1.9|
0,3,5.6|
0,4,1.7|
0,5,6.3|
0,6,8.6|
0,7,3|
1,0,7.3|
1,1,0.38|
1,2,5|
1,3,5.8|
1,4,3.9|
1,5,1.6|
1,6,3.5|
1,7,9.5|
2,0,1.2|
2,1,6|
2,2,0.95|
2,3,8.4|
2,4,6.1|
2,5,1.9|
2,6,5.9|
2,7,8.5|
3,0,0.9|
3,1,1.9|
3,2,2.5|
3,3,6.4|
3,4,5.6|
3,5,4.5|
3,6,9|
3,7,4.3|
4,0,0.99|
4,1,2.6|
4,2,8.1|
4,3,4.2|
4,4,4.9|
4,5,1.1|
4,6,1.8|
4,7,3.6|
5,0,1.4|
5,1,2.5|
5,2,2.8|
5,3,10|
5,4,2.6|
5,5,6.1|
5,6,8.8|
5,7,0.93|
6,0,9.4|
6,1,4.8|
6,2,8.3|
6,3,5.1|
6,4,1.2|
6,5,2.7|
6,6,5.4|
6,7,0.86|
7,0,10|
7,1,2.9|
7,2,6.3|
7,3,2.6|
7,4,3.6|
7,5,8.1|
7,6,3.8|
7,7,8.5|
];
constraint_x11_x7=[
0,0,9.2|
0,1,5.9|
0,2,5.6|
0,3,7.3|
0,4,4.9|
0,5,9.5|
0,6,0.96|
0,7,4.1|
1,0,2.8|
1,1,8.4|
1,2,3.3|
1,3,7.4|
1,4,3.8|
1,5,8.4|
1,6,4.4|
1,7,2|
2,0,3.6|
2,1,2.5|
2,2,6.4|
2,3,5.6|
2,4,0.91|
2,5,3|
2,6,9.5|
2,7,9.6|
3,0,2|
3,1,7.4|
3,2,9.2|
3,3,8.7|
3,4,3.8|
3,5,8.8|
3,6,8.8|
3,7,9.3|
4,0,0.55|
4,1,2.8|
4,2,9.7|
4,3,0.35|
4,4,8.5|
4,5,1.5|
4,6,2.8|
4,7,5.5|
5,0,4.6|
5,1,6.5|
5,2,6.3|
5,3,4.1|
5,4,8.6|
5,5,7.5|
5,6,3.2|
5,7,1.7|
6,0,3.1|
6,1,4.7|
6,2,2.6|
6,3,5.5|
6,4,3.3|
6,5,9.5|
6,6,4|
6,7,5.6|
7,0,9.5|
7,1,1.6|
7,2,7|
7,3,7.1|
7,4,4.7|
7,5,5.1|
7,6,2.8|
7,7,3.3|
];
constraint_x12_x8=[
0,0,7|
0,1,7.5|
0,2,0.3|
0,3,8.2|
0,4,4.8|
0,5,3.6|
0,6,8.9|
0,7,3.3|
1,0,7.7|
1,1,9.3|
1,2,1.8|
1,3,6.7|
1,4,1.9|
1,5,9.7|
1,6,1.9|
1,7,2.2|
2,0,2|
2,1,4.2|
2,2,8.3|
2,3,9.3|
2,4,8.9|
2,5,4.8|
2,6,5.2|
2,7,6.9|
3,0,9.9|
3,1,1.8|
3,2,6.2|
3,3,9|
3,4,2.7|
3,5,3.1|
3,6,7.6|
3,7,4.5|
4,0,5.5|
4,1,4.9|
4,2,0.49|
4,3,2.5|
4,4,0.55|
4,5,4.8|
4,6,8.8|
4,7,8.2|
5,0,3.5|
5,1,6.3|
5,2,1.7|
5,3,5.7|
5,4,0.37|
5,5,8.3|
5,6,1.7|
5,7,2.5|
6,0,1.9|
6,1,9.3|
6,2,6.3|
6,3,6.4|
6,4,4|
6,5,6.6|
6,6,3.1|
6,7,4|
7,0,1.3|
7,1,4.2|
7,2,5.3|
7,3,2.5|
7,4,8.9|
7,5,2.5|
7,6,6|
7,7,0.75|
];
constraint_x13_x9=[
0,0,0.66|
0,1,4.9|
0,2,2|
0,3,3|
0,4,6.5|
0,5,9|
0,6,3.5|
0,7,2.8|
1,0,1.1|
1,1,7.4|
1,2,7.8|
1,3,3.8|
1,4,4.7|
1,5,10|
1,6,3.1|
1,7,3.3|
2,0,4.1|
2,1,8|
2,2,8.1|
2,3,2.5|
2,4,2|
2,5,7.8|
2,6,5.3|
2,7,3.2|
3,0,0.58|
3,1,1.9|
3,2,1.5|
3,3,6.1|
3,4,4.6|
3,5,6.2|
3,6,0.75|
3,7,5.5|
4,0,8|
4,1,9.4|
4,2,8.2|
4,3,3.1|
4,4,2.4|
4,5,4|
4,6,0.56|
4,7,7.2|
5,0,4.6|
5,1,2.4|
5,2,9|
5,3,7.3|
5,4,5.3|
5,5,1.6|
5,6,2.3|
5,7,7.7|
6,0,2.1|
6,1,2.2|
6,2,1.7|
6,3,4.3|
6,4,4|
6,5,2.2|
6,6,2.8|
6,7,0.86|
7,0,6.6|
7,1,0.27|
7,2,4.9|
7,3,3.3|
7,4,1.9|
7,5,0.65|
7,6,10|
7,7,5.4|
];
constraint_x14_x10=[
0,0,2.1|
0,1,2.6|
0,2,9.2|
0,3,1.2|
0,4,9.5|
0,5,1.6|
0,6,2.2|
0,7,3.9|
1,0,1.2|
1,1,5.5|
1,2,8.3|
1,3,7.1|
1,4,8.5|
1,5,0.66|
1,6,0.15|
1,7,4.6|
2,0,5.2|
2,1,0.78|
2,2,9.7|
2,3,2.5|
2,4,9|
2,5,8.9|
2,6,6.1|
2,7,1.1|
3,0,6.9|
3,1,7.7|
3,2,3|
3,3,7.3|
3,4,2.1|
3,5,3.4|
3,6,7|
3,7,6.4|
4,0,6.8|
4,1,6.4|
4,2,7.2|
4,3,6.1|
4,4,8.9|
4,5,5.2|
4,6,0.55|
4,7,4.5|
5,0,7.8|
5,1,1.2|
5,2,2.5|
5,3,6.9|
5,4,9.5|
5,5,2.9|
5,6,9.6|
5,7,1.3|
6,0,0.3|
6,1,9.5|
6,2,2|
6,3,5.8|
6,4,4.9|
6,5,7.3|
6,6,1.3|
6,7,3.9|
7,0,9|
7,1,0.75|
7,2,7.2|
7,3,9.3|
7,4,3.7|
7,5,7.3|
7,6,8.7|
7,7,3|
];
constraint_x15_x11=[
0,0,9.5|
0,1,3.1|
0,2,7.2|
0,3,7.4|
0,4,4.8|
0,5,1.7|
0,6,4.6|
0,7,1.4|
1,0,2.2|
1,1,3.4|
1,2,5.6|
1,3,8.8|
1,4,6.2|
1,5,0.67|
1,6,1.7|
1,7,4.1|
2,0,8.5|
2,1,2.3|
2,2,1.7|
2,3,5.9|
2,4,0.16|
2,5,9.7|
2,6,4.1|
2,7,0.92|
3,0,7.7|
3,1,1|
3,2,1.1|
3,3,2.4|
3,4,1.3|
3,5,8.5|
3,6,9.4|
3,7,5.2|
4,0,4.2|
4,1,7.5|
4,2,6.2|
4,3,0.0075|
4,4,2.7|
4,5,6.1|
4,6,1.3|
4,7,7.1|
5,0,8.4|
5,1,6.9|
5,2,0.51|
5,3,1.3|
5,4,9.8|
5,5,7.3|
5,6,8|
5,7,2.8|
6,0,6.6|
6,1,1.7|
6,2,3.8|
6,3,5.8|
6,4,0.44|
6,5,8.3|
6,6,3.4|
6,7,4.3|
7,0,5.4|
7,1,3.9|
7,2,6|
7,3,8.8|
7,4,5|
7,5,4.3|
7,6,7.8|
7,7,3.5|
];
constraint_x16_x12=[
0,0,8.7|
0,1,8.8|
0,2,2.6|
0,3,9.2|
0,4,9|
0,5,8.8|
0,6,9.4|
0,7,8|
1,0,8.2|
1,1,8.4|
1,2,5.9|
1,3,4|
1,4,7.9|
1,5,3.5|
1,6,3.3|
1,7,3.3|
2,0,7.8|
2,1,0.3|
2,2,2.1|
2,3,4.2|
2,4,0.56|
2,5,2.8|
2,6,4.7|
2,7,6.7|
3,0,9.6|
3,1,5.6|
3,2,9.1|
3,3,2.2|
3,4,4.4|
3,5,8.9|
3,6,2.7|
3,7,1.5|
4,0,7.3|
4,1,3.4|
4,2,6.3|
4,3,9.1|
4,4,9.4|
4,5,8.7|
4,6,4.7|
4,7,7.6|
5,0,6.3|
5,1,5.6|
5,2,8|
5,3,8.7|
5,4,0.27|
5,5,5.1|
5,6,5.8|
5,7,6.2|
6,0,3|
6,1,0.33|
6,2,6.5|
6,3,4.4|
6,4,0.41|
6,5,10|
6,6,3.5|
6,7,2.1|
7,0,3.5|
7,1,1.6|
7,2,9.9|
7,3,2.6|
7,4,7.4|
7,5,5.5|
7,6,3.5|
7,7,2.6|
];
constraint_x17_x13=[
0,0,7.8|
0,1,4.6|
0,2,5|
0,3,9.5|
0,4,8.3|
0,5,7.1|
0,6,6.4|
0,7,0.43|
1,0,0.98|
1,1,4.5|
1,2,8.3|
1,3,3.1|
1,4,6.6|
1,5,3.8|
1,6,9.7|
1,7,8.7|
2,0,4.1|
2,1,0.59|
2,2,7.7|
2,3,5.3|
2,4,8.4|
2,5,5.7|
2,6,2.9|
2,7,4.4|
3,0,6|
3,1,9.7|
3,2,8.1|
3,3,1.4|
3,4,3.6|
3,5,3.2|
3,6,5|
3,7,6.4|
4,0,0.39|
4,1,6.5|
4,2,7.3|
4,3,1.3|
4,4,2.1|
4,5,8.6|
4,6,1.8|
4,7,0.16|
5,0,8.9|
5,1,5.4|
5,2,1.3|
5,3,2.1|
5,4,3.9|
5,5,9.1|
5,6,2.7|
5,7,9.3|
6,0,7.5|
6,1,6.3|
6,2,0.58|
6,3,4|
6,4,7|
6,5,2.7|
6,6,0.67|
6,7,6.7|
7,0,5.4|
7,1,8|
7,2,8|
7,3,5.8|
7,4,3.8|
7,5,7.4|
7,6,1.3|
7,7,7.7|
];
constraint_x18_x14=[
0,0,5.4|
0,1,1.3|
0,2,0.56|
0,3,1.6|
0,4,3.9|
0,5,2.1|
0,6,0.59|
0,7,6.5|
1,0,9.2|
1,1,2.4|
1,2,7.5|
1,3,8.4|
1,4,5.6|
1,5,5.3|
1,6,2.7|
1,7,7.5|
2,0,9|
2,1,4.3|
2,2,8.3|
2,3,6.7|
2,4,8.5|
2,5,5.5|
2,6,0.03|
2,7,4.8|
3,0,3.8|
3,1,0.41|
3,2,5.2|
3,3,5.3|
3,4,2.1|
3,5,0.61|
3,6,6|
3,7,4.1|
4,0,3.6|
4,1,6.4|
4,2,8.1|
4,3,5.9|
4,4,4.9|
4,5,7.2|
4,6,5.2|
4,7,2.5|
5,0,7.9|
5,1,2.2|
5,2,8.9|
5,3,4.1|
5,4,8.2|
5,5,4.9|
5,6,5.5|
5,7,3.2|
6,0,9.5|
6,1,7.5|
6,2,1.8|
6,3,8.2|
6,4,8.6|
6,5,1.4|
6,6,4.8|
6,7,0.69|
7,0,9.2|
7,1,6.5|
7,2,5.9|
7,3,8.4|
7,4,1.3|
7,5,5.6|
7,6,7.3|
7,7,8.1|
];
constraint_x19_x15=[
0,0,6.1|
0,1,0.1|
0,2,6.1|
0,3,5.6|
0,4,3.9|
0,5,8.1|
0,6,9.1|
0,7,9.9|
1,0,3.5|
1,1,5.2|
1,2,3.9|
1,3,1.8|
1,4,0.44|
1,5,5.1|
1,6,5.2|
1,7,7.8|
2,0,9.9|
2,1,0.66|
2,2,1.9|
2,3,0.51|
2,4,3.9|
2,5,6.1|
2,6,6|
2,7,5.2|
3,0,5.7|
3,1,4.5|
3,2,7.7|
3,3,1.4|
3,4,5.4|
3,5,0.68|
3,6,7.2|
3,7,8.2|
4,0,9.9|
4,1,5.6|
4,2,4.3|
4,3,2.3|
4,4,9.9|
4,5,9.7|
4,6,7.8|
4,7,4.7|
5,0,7.2|
5,1,6.7|
5,2,8|
5,3,0.45|
5,4,6.2|
5,5,6.8|
5,6,0.37|
5,7,5.8|
6,0,8.1|
6,1,6.9|
6,2,7.2|
6,3,7.6|
6,4,5.9|
6,5,8.7|
6,6,2|
6,7,5.4|
7,0,7.5|
7,1,0.3|
7,2,4.8|
7,3,8.9|
7,4,2.1|
7,5,9|
7,6,1.2|
7,7,5|
];
constraint_x20_x16=[
0,0,6.4|
0,1,4.9|
0,2,9.8|
0,3,9.6|
0,4,4.4|
0,5,6.6|
0,6,8.6|
0,7,8.4|
1,0,5.4|
1,1,7.4|
1,2,5.8|
1,3,6.6|
1,4,5.2|
1,5,3.3|
1,6,5|
1,7,4.2|
2,0,4.5|
2,1,5.1|
2,2,0.62|
2,3,6.8|
2,4,5.4|
2,5,0.74|
2,6,5.3|
2,7,6.5|
3,0,9.9|
3,1,0.51|
3,2,0.087|
3,3,7.4|
3,4,0.75|
3,5,4.8|
3,6,2.5|
3,7,5.7|
4,0,8.9|
4,1,5.2|
4,2,0.055|
4,3,1.5|
4,4,4.7|
4,5,1.8|
4,6,9.2|
4,7,4.2|
5,0,1.9|
5,1,0.058|
5,2,8.3|
5,3,9.3|
5,4,5.5|
5,5,1.4|
5,6,9.1|
5,7,8.8|
6,0,8.9|
6,1,2|
6,2,4.9|
6,3,5.8|
6,4,5.1|
6,5,3.8|
6,6,2.6|
6,7,6.2|
7,0,8.5|
7,1,0.31|
7,2,4.1|
7,3,7|
7,4,9.1|
7,5,6.6|
7,6,2.2|
7,7,9.3|
];
constraint_x1_y1=[
0,0,8.9|
0,1,2.3|
0,2,9.3|
0,3,6.8|
0,4,4.1|
0,5,8.4|
0,6,0.87|
0,7,4|
1,0,2.9|
1,1,6.4|
1,2,4.4|
1,3,2.1|
1,4,3.8|
1,5,4.9|
1,6,2.1|
1,7,6.6|
2,0,9.8|
2,1,3.4|
2,2,2.2|
2,3,7.2|
2,4,2.6|
2,5,8.7|
2,6,3.7|
2,7,7.4|
3,0,8.8|
3,1,1.6|
3,2,4.6|
3,3,5.6|
3,4,2.3|
3,5,1.4|
3,6,0.44|
3,7,2.9|
4,0,4.3|
4,1,1.7|
4,2,0.2|
4,3,0.92|
4,4,0.31|
4,5,9.4|
4,6,4.4|
4,7,1.3|
5,0,7.1|
5,1,7.4|
5,2,9.5|
5,3,2.7|
5,4,7.9|
5,5,8.3|
5,6,9.3|
5,7,5.5|
6,0,5.3|
6,1,7|
6,2,3|
6,3,5.2|
6,4,1.5|
6,5,7.7|
6,6,9.6|
6,7,0.62|
7,0,3.9|
7,1,2.6|
7,2,6|
7,3,2|
7,4,1.9|
7,5,3.8|
7,6,7|
7,7,0.86|
];
constraint_x2_y2=[
0,0,2.4|
0,1,5.9|
0,2,9.6|
0,3,8.9|
0,4,6.2|
0,5,0.57|
0,6,2.2|
0,7,7.2|
1,0,1.3|
1,1,8.1|
1,2,2.4|
1,3,5.3|
1,4,9.7|
1,5,6.4|
1,6,6.8|
1,7,7.9|
2,0,7.8|
2,1,4.5|
2,2,9|
2,3,1.4|
2,4,6.5|
2,5,3.3|
2,6,7.5|
2,7,3.1|
3,0,6.4|
3,1,0.8|
3,2,6.1|
3,3,2.1|
3,4,4.7|
3,5,3.1|
3,6,3.7|
3,7,0.49|
4,0,9.2|
4,1,6.2|
4,2,3.2|
4,3,4.2|
4,4,4.8|
4,5,4.9|
4,6,7|
4,7,9.6|
5,0,4.2|
5,1,7.9|
5,2,2.7|
5,3,3.4|
5,4,9.4|
5,5,3.3|
5,6,7.6|
5,7,2.5|
6,0,3.2|
6,1,1.2|
6,2,0.98|
6,3,8.6|
6,4,0.018|
6,5,2.9|
6,6,2.7|
6,7,2.1|
7,0,0.9|
7,1,1.1|
7,2,0.45|
7,3,3.6|
7,4,9.4|
7,5,0.21|
7,6,2.5|
7,7,2.5|
];
constraint_x3_y3=[
0,0,5.5|
0,1,4.4|
0,2,2.1|
0,3,6.3|
0,4,8.2|
0,5,6.3|
0,6,1.3|
0,7,3.6|
1,0,9.6|
1,1,6.4|
1,2,9.1|
1,3,6.6|
1,4,8|
1,5,8.5|
1,6,2.4|
1,7,1.6|
2,0,2.4|
2,1,9.8|
2,2,2.9|
2,3,7.3|
2,4,0.024|
2,5,0.9|
2,6,7.8|
2,7,2.3|
3,0,6.6|
3,1,6.9|
3,2,0.44|
3,3,5.3|
3,4,2.8|
3,5,7.9|
3,6,8|
3,7,1.8|
4,0,3.7|
4,1,2.6|
4,2,3|
4,3,1.8|
4,4,5.8|
4,5,9.6|
4,6,2.7|
4,7,7.8|
5,0,8.8|
5,1,3.8|
5,2,5.3|
5,3,3.9|
5,4,9.6|
5,5,8.1|
5,6,8.7|
5,7,4.3|
6,0,4.4|
6,1,6.1|
6,2,7.1|
6,3,4.6|
6,4,7.3|
6,5,3.6|
6,6,5|
6,7,2|
7,0,7.8|
7,1,6.2|
7,2,1.1|
7,3,2.4|
7,4,9.3|
7,5,2.2|
7,6,3.8|
7,7,3.4|
];
constraint_x4_y4=[
0,0,5.9|
0,1,3.8|
0,2,3.3|
0,3,4.4|
0,4,0.25|
0,5,6.3|
0,6,1.6|
0,7,3.7|
1,0,8.4|
1,1,7.6|
1,2,3.8|
1,3,8.4|
1,4,3.6|
1,5,1.8|
1,6,4|
1,7,8.5|
2,0,4.1|
2,1,4.5|
2,2,7|
2,3,8.2|
2,4,6.7|
2,5,2.7|
2,6,1.9|
2,7,3.4|
3,0,7.4|
3,1,3.3|
3,2,9.2|
3,3,9.5|
3,4,0.53|
3,5,0.026|
3,6,9.5|
3,7,3.2|
4,0,6.9|
4,1,4.8|
4,2,4.6|
4,3,8.1|
4,4,4.6|
4,5,0.59|
4,6,9.5|
4,7,8.2|
5,0,6.2|
5,1,5.5|
5,2,2.2|
5,3,8|
5,4,1.7|
5,5,9.1|
5,6,3.5|
5,7,0.044|
6,0,7.1|
6,1,7.9|
6,2,6|
6,3,7.1|
6,4,6.6|
6,5,9.4|
6,6,8.3|
6,7,7.9|
7,0,7.2|
7,1,4.1|
7,2,6.5|
7,3,1.1|
7,4,4.2|
7,5,7.3|
7,6,1.9|
7,7,8.9|
];
constraint_x5_y5=[
0,0,3.1|
0,1,9.1|
0,2,0.68|
0,3,7.6|
0,4,5.6|
0,5,2.2|
0,6,9.5|
0,7,8.3|
1,0,6.5|
1,1,3.8|
1,2,2.7|
1,3,5.8|
1,4,9.8|
1,5,6.3|
1,6,6.5|
1,7,1|
2,0,2.6|
2,1,5|
2,2,1.1|
2,3,7.5|
2,4,9.2|
2,5,1.9|
2,6,5.4|
2,7,5.5|
3,0,2.9|
3,1,4|
3,2,4|
3,3,6.7|
3,4,7.2|
3,5,5.8|
3,6,3.3|
3,7,6.8|
4,0,2.6|
4,1,0.0027|
4,2,5.1|
4,3,3.6|
4,4,7.7|
4,5,5.8|
4,6,3.4|
4,7,9.8|
5,0,1.2|
5,1,3.4|
5,2,2.8|
5,3,8|
5,4,5.2|
5,5,6.7|
5,6,5.6|
5,7,3.9|
6,0,2|
6,1,9|
6,2,6.9|
6,3,6.5|
6,4,8.1|
6,5,5.2|
6,6,1.5|
6,7,3.4|
7,0,4.7|
7,1,9.3|
7,2,3.1|
7,3,0.21|
7,4,2.3|
7,5,6.7|
7,6,0.68|
7,7,7.9|
];
constraint_x6_y6=[
0,0,9.2|
0,1,7.4|
0,2,6.1|
0,3,6.6|
0,4,2.2|
0,5,6.2|
0,6,5.4|
0,7,9.7|
1,0,8.6|
1,1,9.5|
1,2,9.9|
1,3,8.1|
1,4,2.5|
1,5,6.7|
1,6,4.9|
1,7,6.5|
2,0,8.6|
2,1,5.5|
2,2,9.7|
2,3,9.4|
2,4,1.1|
2,5,4|
2,6,9.6|
2,7,5.2|
3,0,5.3|
3,1,1.5|
3,2,1.1|
3,3,6|
3,4,9.5|
3,5,0.15|
3,6,7.3|
3,7,6.3|
4,0,8|
4,1,5.2|
4,2,9.9|
4,3,1.2|
4,4,0.92|
4,5,8.2|
4,6,7|
4,7,6.4|
5,0,9.5|
5,1,7.5|
5,2,7|
5,3,2.8|
5,4,9.9|
5,5,3.1|
5,6,3.8|
5,7,5.9|
6,0,0.64|
6,1,3.1|
6,2,7.1|
6,3,9.3|
6,4,8.3|
6,5,8.2|
6,6,0.91|
6,7,6|
7,0,5.4|
7,1,0.98|
7,2,7.8|
7,3,9.1|
7,4,3.7|
7,5,4.1|
7,6,2.7|
7,7,1.8|
];
constraint_x7_y7=[
0,0,7.1|
0,1,2.6|
0,2,8.4|
0,3,4.8|
0,4,1.5|
0,5,0.54|
0,6,5.2|
0,7,8.5|
1,0,1.7|
1,1,5.1|
1,2,4.5|
1,3,2.1|
1,4,5.4|
1,5,2.5|
1,6,2.8|
1,7,2.8|
2,0,4.5|
2,1,5.8|
2,2,5.3|
2,3,1.3|
2,4,3.5|
2,5,9.1|
2,6,5.5|
2,7,6|
3,0,4|
3,1,4.5|
3,2,2.1|
3,3,4.3|
3,4,9.9|
3,5,3.8|
3,6,4.8|
3,7,9.1|
4,0,8.8|
4,1,7.7|
4,2,5.9|
4,3,4.1|
4,4,2.4|
4,5,4.8|
4,6,6.9|
4,7,9.2|
5,0,9.4|
5,1,9.1|
5,2,0.72|
5,3,3.4|
5,4,5.5|
5,5,7.9|
5,6,5.3|
5,7,2.2|
6,0,0.43|
6,1,6.5|
6,2,4.2|
6,3,8.3|
6,4,5.6|
6,5,2.3|
6,6,9.1|
6,7,1.1|
7,0,8.6|
7,1,9.1|
7,2,4|
7,3,2.5|
7,4,6.8|
7,5,8.6|
7,6,8.6|
7,7,1.5|
];
constraint_x8_y8=[
0,0,2.4|
0,1,0.75|
0,2,4.2|
0,3,5.8|
0,4,1.9|
0,5,8.8|
0,6,7.6|
0,7,8.7|
1,0,6.9|
1,1,4.9|
1,2,2.3|
1,3,6.6|
1,4,6|
1,5,9.1|
1,6,1.3|
1,7,7.9|
2,0,7.4|
2,1,5.4|
2,2,3.5|
2,3,2.4|
2,4,6.3|
2,5,4.1|
2,6,5.6|
2,7,3.8|
3,0,6.8|
3,1,4.9|
3,2,6.2|
3,3,1|
3,4,5|
3,5,9.3|
3,6,5.6|
3,7,8.4|
4,0,6.9|
4,1,5.6|
4,2,5.7|
4,3,8.9|
4,4,4|
4,5,8|
4,6,3.8|
4,7,2.7|
5,0,4.7|
5,1,5.3|
5,2,4.7|
5,3,1.3|
5,4,8.4|
5,5,3.6|
5,6,3|
5,7,3.9|
6,0,2.4|
6,1,8.3|
6,2,0.61|
6,3,6.3|
6,4,7.9|
6,5,8.8|
6,6,7.3|
6,7,6.2|
7,0,4.5|
7,1,5.4|
7,2,4.8|
7,3,8|
7,4,1.6|
7,5,0.27|
7,6,1.8|
7,7,8.5|
];
constraint_x9_y9=[
0,0,7.5|
0,1,8.9|
0,2,3.4|
0,3,5.3|
0,4,1.5|
0,5,8.8|
0,6,2.1|
0,7,6.1|
1,0,7.8|
1,1,5.3|
1,2,9.8|
1,3,0.71|
1,4,0.092|
1,5,6.6|
1,6,7.4|
1,7,6.5|
2,0,9.2|
2,1,1.3|
2,2,7.9|
2,3,9|
2,4,2.8|
2,5,7.4|
2,6,4.7|
2,7,6.8|
3,0,7.4|
3,1,8.7|
3,2,2.9|
3,3,2.5|
3,4,1.2|
3,5,9.4|
3,6,6.8|
3,7,1.8|
4,0,9.6|
4,1,6.3|
4,2,9.8|
4,3,5.4|
4,4,1.5|
4,5,7.1|
4,6,8.6|
4,7,0.16|
5,0,2.4|
5,1,1.7|
5,2,5.7|
5,3,9.2|
5,4,4.3|
5,5,4.6|
5,6,6.6|
5,7,5.6|
6,0,5.3|
6,1,2|
6,2,2.4|
6,3,3.3|
6,4,9.9|
6,5,5.8|
6,6,6.1|
6,7,6.2|
7,0,1|
7,1,5.8|
7,2,3.4|
7,3,0.5|
7,4,1.5|
7,5,7.2|
7,6,9.8|
7,7,6.8|
];
initial_distribution_y1=[0.18,0.033,0.14,0.22,0.03,0.15,0.078,0.16];
initial_distribution_y2=[0.17,0.16,0.094,0.14,0.043,0.15,0.064,0.18];
initial_distribution_y3=[0.043,0.038,0.089,0.077,0.18,0.38,0.033,0.16];
initial_distribution_y4=[0.13,0.16,0.17,0.15,0.11,0.019,0.2,0.074];
initial_distribution_y5=[0.12,0.14,0.12,0.12,0.17,0.16,0.17,0.021];
initial_distribution_y6=[0.13,0.035,0.19,0.094,0.22,0.2,0.11,0.01];
initial_distribution_y7=[0.0064,0.2,0.0093,0.19,0.21,0.12,0.17,0.096];
initial_distribution_y8=[0.14,0.26,0.11,0.022,0.03,0.091,0.17,0.16];
initial_distribution_y9=[0.02,0.12,0.053,0.32,0.076,0.03,0.32,0.063];
transition_y1=[
0.12,0.069,0.05,0.19,0.19,0.2,0.045,0.13|
0.1,0.063,0.16,0.2,0.27,0.099,0.052,0.061|
0.016,0.11,0.2,0.2,0.11,0.18,0.12,0.065|
0.26,0.11,0.088,0.21,0.0069,0.21,0.062,0.057|
0.15,0.16,0.037,0.12,0.017,0.17,0.12,0.23|
0.038,0.23,0.22,0.16,0.18,0.13,0.014,0.013|
0.13,0.063,0.077,0.14,0.28,0.29,0.014,0.012|
0.13,0.24,0.012,0.1,0.058,0.23,0.13,0.093|
];
transition_y2=[
0.02,0.24,0.012,0.073,0.18,0.15,0.2,0.13|
0.14,0.16,0.16,0.017,0.14,0.18,0.046,0.16|
0.082,0.084,0.18,0.19,0.2,0.013,0.088,0.17|
0.073,0.13,0.033,0.057,0.27,0.057,0.21,0.17|
0.065,0.13,0.017,0.23,0.1,0.33,0.021,0.11|
0.037,0.067,0.22,0.27,0.11,0.1,0.092,0.1|
0.11,0.12,0.055,0.24,0.061,0.17,0.0073,0.24|
0.23,0.079,0.23,0.014,0.06,0.17,0.067,0.15|
];
transition_y3=[
0.0081,0.049,0.21,0.19,0.19,0.14,0.029,0.17|
0.2,0.15,0.064,0.18,0.055,0.013,0.22,0.11|
0.087,0.062,0.19,0.17,0.17,0.2,0.062,0.068|
0.27,0.15,0.21,0.071,0.053,0.0083,0.16,0.091|
0.11,0.19,0.2,0.094,0.13,0.053,0.091,0.14|
0.13,0.096,0.13,0.24,0.014,0.071,0.11,0.21|
0.12,0.0033,0.2,0.01,0.2,0.11,0.19,0.15|
0.19,0.0096,0.01,0.14,0.063,0.31,0.17,0.12|
];
transition_y4=[
0.18,0.013,0.011,0.13,0.18,0.14,0.23,0.11|
0.098,0.095,0.17,0.16,0.18,0.023,0.16,0.11|
0.13,0.11,0.099,0.11,0.16,0.16,0.17,0.059|
0.055,0.18,0.069,0.1,0.15,0.1,0.19,0.15|
0.16,0.13,0.11,0.15,0.095,0.093,0.14,0.12|
0.14,0.15,0.085,0.011,0.23,0.25,0.078,0.058|
0.042,0.25,0.17,0.11,0.023,0.19,0.19,0.014|
0.22,0.087,0.085,0.043,0.054,0.19,0.23,0.094|
];
transition_y5=[
0.18,0.2,0.12,0.17,0.052,0.14,0.046,0.09|
0.027,0.2,0.18,0.088,0.22,0.078,0.18,0.021|
0.17,0.1,0.19,0.036,0.18,0.016,0.22,0.082|
0.088,0.04,0.17,0.24,0.12,0.2,0.14,0.0062|
0.1,0.25,0.24,0.2,0.035,0.053,0.11,0.011|
0.12,0.19,0.14,0.14,0.13,0.08,0.14,0.053|
0.21,0.024,0.025,0.18,0.41,0.054,0.059,0.043|
0.15,0.19,0.021,0.13,0.033,0.068,0.22,0.19|
];
transition_y6=[
0.26,0.12,0.15,0.17,0.17,0.015,0.011,0.11|
0.1,0.18,0.15,0.1,0.15,0.1,0.12,0.098|
0.12,0.36,0.16,0.072,0.037,0.041,0.088,0.13|
0.19,0.1,0.092,0.069,0.16,0.17,0.14,0.069|
0.12,0.18,0.13,0.13,0.12,0.01,0.16,0.16|
0.19,0.12,0.23,0.13,0.032,0.065,0.05,0.18|
0.041,0.17,0.16,0.18,0.16,0.088,0.2,0.015|
0.17,0.26,0.35,0.046,0.0067,0.01,0.044,0.12|
];
transition_y7=[
0.16,0.081,0.026,0.15,0.039,0.24,0.13,0.18|
0.047,0.15,0.13,0.075,0.085,0.22,0.13,0.16|
0.18,0.29,0.022,0.1,0.0066,0.14,0.1,0.15|
0.28,0.21,0.026,0.031,0.051,0.065,0.039,0.3|
0.0054,0.14,0.17,0.095,0.2,0.084,0.097,0.21|
0.13,0.051,0.11,0.18,0.043,0.14,0.2,0.15|
0.2,0.12,0.08,0.064,0.17,0.0051,0.14,0.22|
0.071,0.2,0.22,0.032,0.082,0.033,0.22,0.14|
];
transition_y8=[
0.092,0.022,0.21,0.17,0.21,0.16,0.084,0.057|
0.074,0.098,0.17,0.19,0.16,0.064,0.062,0.18|
0.11,0.12,0.061,0.16,0.039,0.19,0.11,0.2|
0.02,0.039,0.24,0.14,0.11,0.13,0.086,0.23|
0.12,0.2,0.071,0.088,0.21,0.049,0.14,0.13|
0.22,0.019,0.093,0.026,0.23,0.16,0.2,0.055|
0.089,0.16,0.21,0.08,0.13,0.2,0.052,0.082|
0.2,0.28,0.2,0.034,0.1,0.025,0.13,0.039|
];
transition_y9=[
0.12,0.13,0.18,0.053,0.14,0.018,0.25,0.11|
0.049,0.12,0.19,0.18,0.1,0.1,0.19,0.063|
0.092,0.14,0.11,0.01,0.22,0.16,0.11,0.16|
0.09,0.067,0.22,0.045,0.11,0.14,0.25,0.086|
0.09,0.16,0.13,0.0037,0.21,0.2,0.071,0.14|
0.24,0.16,0.024,0.02,0.1,0.021,0.24,0.19|
0.11,0.16,0.073,0.1,0.084,0.11,0.19,0.18|
0.14,0.021,0.08,0.24,0.056,0.24,0.065,0.16|
];
